10,4	0,0	6,9	16,0	0,0	0,0	0,0	0,0	0,0	13,5
14,4	14,8	0,0	10,4	5,3	0,0	0,0	18,9	0,0	0,0
0,0	0,0	8,3	0,0	16,7	17,3	0,0	0,0	7,1	0,0
19,8	0,0	14,9	0,0	0,0	0,0	17,5	0,0	0,0	0,0
0,0	13,8	0,0	10,6	12,4	0,0	0,0	20,0	0,0	0,0
0,0	12,2	15,2	0,0	6,9	9,5	0,0	0,0	18,6	0,0
0,0	7,5	0,0	8,6	0,0	0,0	14,4	0,0	0,0	11,8
7,0	0,0	7,1	0,0	0,0	0,0	0,0	0,0	0,0	10,4
0,0	9,3	0,0	8,6	12,2	0,0	0,0	16,7	0,0	0,0
0,0	0,0	16,5	0,0	0,0	16,7	17,6	0,0	0,0	7,0
									
3,9	3,9	3,3	3,4	2,6	2,6	4,9	3,3	4,8	2,7
